40-2-21-15-0-7-8-37-30-43-17-6-27-5-36-18-26-16-42-29-35-45-32-19-11-14-39-10-22-12-46-20-31-23-9-44-34-3-25-41-1-28-4-47-38-24-13-33 34395

46-19-32-14-45-35-29-42-16-26-18-36-5-27-6-17-43-30-37-8-7-0-21-15-40-33-2-39-11-10-22-12-13-24-47-4-28-1-41-9-25-3-34-44-23-31-38-20 34477

6-27-5-36-18-26-16-42-29-35-17-45-32-14-11-19-46-10-22-13-24-12-20-31-38-47-4-41-23-9-44-34-3-25-1-28-40-33-2-15-21-39-0-7-8-37-30-43 34280